Reproduction of the Original Problem/Instances/S3-5/S3-5-5-2-l.txt
     300       5    0.05
       1       3       2       2       3       4       2       0      13      14       3
       2       3       3       1       3      16      12      12       5       5       2
       2       1       3       2       1       9      11       0       6      11       3
       3       2       3       1       3       1      11      16      12      14       2
       1       1       3       2       1       5       4       4       4       7       2
       3       1       3       3       1       9      12       0      11      16       3
       1       2       2       3       3      13      12       8       5      16       2
       2       3       1       3       1      16       9       2      10       4       3
       1       2       2       1       1       8       3      14       2      10       2
       1       1       3       1       3       1       4       4       6       3       2
       2       1       2       2       1       5      12       0       8       2       3
       3       3       1       2       2       9      11      15      16       5       3
       2       3       3       2       3       2      11       8      13       5       3
       3       3       3       3       2      16       8      10       3       3       2
       2       2       2       2       1       0      13       9      12       5       2
       1       2       3       2       2       3      13      15       9      13       3
       2       1       3       2       1      14      16       9      13      10       2
       3       2       2       2       3       8       3       2       1       3       2
       1       1       1       3       1       9      12       4      14      16       2
       2       2       3       1       3       5      16       8       9      15       2
       2       2       2       2       2       9       9       0      14       1       3
       1       1       3       1       3       8      14       6       2       3       3
       3       3       3       3       3       1       0      10      15       9       2
       3       3       3       3       3       8      14       1       0      12       2
       2       2       1       3       1       4      10      12       4       9       2
       3       2       3       3       1       0      15       3       9      15       3
       1       2       2       1       1      11      11       0      12      11       2
       3       2       1       2       3       0      14       1       7       2       3
       3       1       3       3       2       2      16      11       7       4       3
       2       2       1       2       3       2       4      10       6       6       2
       1       1       1       1       2       4      15      15      11       0       2
       2       2       2       1       3       8      13       1       6      14       2
       1       2       1       3       1      10      10       5       3       8       2
       1       2       1       2       3       9      11       3       7      11       2
       1       3       2       3       2      10      14      11      14       6       2
       2       1       3       2       3       3      15       0      16      15       2
       2       1       1       2       1       2       1      10      14       7       2
       3       2       1       1       3       1      13       1       3      14       2
       1       2       1       3       3      14      12      12      11       6       2
       3       2       1       2       3       6      15       6       6       4       2
       3       3       2       1       1       5       0      10       6       0       3
       3       3       3       1       2       2       5      12      14       2       3
       3       3       3       2       1      10       4       3      15       5       2
       1       3       2       1       1       2      11       3       4       8       3
       2       1       2       1       1       4      15      12      16       5       3
       2       1       1       1       2       5       6       4      11       9       2
       3       3       3       1       1      13      16      15       9      11       3
       2       1       1       3       3       4       5      13       0       7       2
       2       1       1       1       1      15      13      11       1      15       2
       2       2       2       2       2       7       2       6       1      11       3
       3       3       3       2       1       4      14      15       8       4       3
       3       2       1       2       3      15       8      10       6      12       2
       3       1       3       3       2       3       5      14      14      12       2
       2       2       3       3       2      14       8       3       0       9       3
       1       3       3       3       1       1      12      14       6      11       2
       2       2       1       2       3      14       8       4       7       0       3
       2       1       3       1       3      15       4       9       4       9       3
       2       1       1       1       3      14      10      11       7       9       3
       2       1       2       3       2       0      12       7      12      14       3
       2       2       1       1       3       0      16       7      15       6       2
       2       1       3       2       2      10       4      10       2      16       3
       1       2       2       2       3       3      13       4      14       7       3
       2       2       3       2       1      11      15       8      10      15       2
       1       3       3       3       1       5       5      11      14      10       3
       1       3       2       3       2      16       4       0       5       6       2
       3       3       1       3       3       1      12      10       5      11       3
       3       2       3       2       2       3      11       9      16      12       2
       2       2       2       1       3       9      16       1       0      16       2
       2       2       2       3       2      11       8       8       2      11       3
       1       3       3       3       1       1       8       2       2      12       3
       2       3       3       2       3       6       0      15       5       2       2
       1       1       1       1       1       2       1      13      13      12       2
       2       3       1       2       2      14      13      14      14      11       3
       2       1       3       1       3       9      14      16       9       7       3
       2       2       3       2       2       3      15       2       6      12       2
       2       2       1       2       3       9       0      13       2       7       3
       3       1       3       3       2      16       3      11       5       8       2
       3       3       1       1       1       7      13       9      16      10       3
       3       2       1       2       2      11       2      10      15       0       2
       3       3       2       3       2      14      10       9      11      11       2
       2       2       2       3       1      12       6       9       8      16       2
       1       2       1       1       3       4       5       4       9      16       2
       2       2       3       1       3      15      10      16       6      16       3
       3       3       1       1       2      14       3      12       3       2       3
       2       1       1       3       1       3       3      13      15       1       2
       1       2       1       2       2      15       9      13       3       7       3
       3       2       1       1       1       7      13       9      12       8       2
       3       2       1       3       1       0       7       5       0       1       2
       2       3       2       3       2       7       0      14      12       9       2
       1       2       2       2       2      13       8       3       8       9       3
       1       3       3       2       3       7      10       6       7       2       2
       2       2       3       1       1      13       3      14       6       3       3
       2       2       1       1       3      12       7       5       5       2       3
       3       3       3       2       1       3      14       5       0       2       3
       3       2       3       2       2       4      13      14       7       5       2
       1       3       1       1       2      12      14       2      12       1       2
       1       2       3       3       2       4       5       7       9      13       3
       3       1       1       1       2      14       7       6       0      11       3
       2       3       3       3       2       9      16       2       9       3       3
       2       3       1       1       1      10       9       4      11       2       2
       2       1       1       3       2       0       9       9      10       8       3
       1       2       1       2       1       3      13       1       4      12       2
       3       2       1       3       1       0       3      16       0      11       2
       1       1       2       1       3       4       7       9       6      10       3
       1       1       2       1       1      13       8       5      12      12       3
       1       2       2       2       3       3      13       1       9       1       3
       1       2       3       1       1      11       5      15       5      15       3
       1       1       2       1       1       7      16      10       9      10       3
       2       3       2       3       1       6      15       1       9      12       2
       3       3       2       1       1       8      12       7      10       9       2
       3       2       2       2       3      16      12       9      11      11       3
       3       3       1       1       2       5      11      10      10      12       3
       3       2       2       3       2      10      11      12       5       1       2
       2       1       1       3       2       3      11      16       8      10       2
       3       3       2       3       3       4      16      12       2       5       2
       3       3       1       3       2       5       8      14      16       1       3
       3       2       2       2       2       2       9       5       5      13       2
       2       1       3       3       3       6       9       0      15       7       2
       1       1       1       2       1       8       3      13      12       2       3
       1       3       3       3       3       3      16      16      11       8       3
       1       1       2       2       3       8       9       0      16       5       3
       3       2       3       2       3      14       4       4       9       3       3
       1       3       2       2       3       7      15       4       1       5       3
       2       2       1       3       2       2      15       2       3       7       2
       3       1       1       1       1      12       0       3       5      16       3
       2       3       2       3       1       2       0      15      11       6       2
       1       2       2       3       3       3       2       4       2      11       2
       3       2       2       3       2       7      15       1       6       5       3
       3       1       3       2       2      15       2       3       7      15       3
       3       1       3       3       2       8       4      13      12       1       3
       3       3       2       3       1       8       1       3      14       1       2
       1       3       3       2       3       1      12      11       1       9       3
       2       1       2       2       1      13       5      14      16      16       3
       3       1       2       1       3       4      10      11      16       9       2
       1       3       1       1       2       0       2      11      12       3       3
       3       3       2       1       2       8      13       5       8      12       3
       3       3       3       3       3       6      11      13       7       7       2
       3       3       3       1       2      16       8       2      13       9       2
       1       3       2       1       3       7       2      11      16      15       3
       3       1       1       3       3       5       5       3      10       8       3
       2       3       3       2       2      15       7       2      14       2       3
       1       3       1       1       2       6       8      10      11       6       3
       2       3       1       1       1      11      15       8       8       6       2
       2       3       1       2       2       4       6       3       7       0       3
       1       1       1       2       2      14      16      10       4       9       3
       3       2       2       3       2       8      11       6       6      13       2
       3       3       2       3       2      12       7       5       4      12       2
       2       1       3       2       3       8       3       3       0      12       3
       2       1       3       3       2       9      10      16       2      10       2
       2       1       1       2       3      12      15       5       8       5       3
       3       3       1       1       2      10       0       0      14      14       2
       3       1       1       1       2      14      10       9      10       0       2
       2       3       3       1       2      10       5       3       7      15       2
       1       3       3       2       3       5       6       0       0      11       3
       3       1       3       3       1      12      16       0       8      12       2
       3       2       3       2       3       8      12      14       7       2       3
       2       2       1       2       2      13       3       8       8      16       2
       1       3       3       3       1       5      12      13       0       8       2
       2       1       1       2       1       2       0       8       2       6       3
       1       1       2       2       1       1       0      15       4       8       2
       3       2       1       1       3       1      15       1       9       1       3
       2       3       3       3       2      13       1       9       9       0       2
       1       1       2       2       1       2       6       7       7       5       2
       2       1       1       3       2      12       3      16      14       0       3
       3       3       2       1       2       5      13       8       2       1       2
       2       2       2       3       1      15      11       8       0      15       3
       3       3       3       2       2       5       2      12       8       1       2
       1       1       2       2       3      16       8       8      10       4       2
       3       1       1       3       1      10      12       8       5      11       3
       1       2       3       3       2       7      11       3      15       4       2
       2       1       2       3       1      10       0       3       3      12       2
       1       1       2       1       1       9      10       1      16      16       3
       3       1       3       3       2      14       9       1       7       0       3
       3       3       3       1       2       4       5       8      16      14       3
       3       2       1       1       3      10       5      10       0      15       2
       2       3       2       2       2       1       2      16       0      10       2
       2       3       1       3       1      12      12      11      13      10       2
       3       3       2       3       2       6       0      16      12       9       2
       3       3       1       3       1      11       8      11      14       0       3
       2       1       2       1       3      12      13       6       2      14       3
       2       2       2       2       1       2       1      11      15       7       3
       1       2       3       1       3      15       7      12       5      14       3
       1       3       2       1       3       2      13       0       9       3       3
       1       1       3       1       2       6       9       9       0      10       3
       3       3       2       3       3      11       9      12       0       3       2
       1       1       3       2       2       7       5      16       3       4       2
       3       2       2       2       2       5       0       2       7       2       2
       2       3       3       1       2       1      14       9       2       0       2
       2       3       1       3       3       6       3       4       3      15       3
       2       2       1       3       2      13       2      15      13      16       2
       2       1       2       1       1       4       4      11      13       8       2
       2       2       1       1       2      11       4      12       7       1       3
       3       2       2       3       1       7      11      11       8       3       3
       2       1       3       3       2      10       7      13      10      15       3
       3       2       1       1       1       4       6      13       6       3       3
       3       1       2       3       2       1       9       8       6      11       3
       3       3       3       2       3       6      14       0       8       2       3
       2       2       1       1       1      11      11       2      12       9       3
       2       1       3       3       2       2       1       0       3       0       3
       1       2       2       2       1       0      11      12       4      14       2
       2       1       1       2       3      10       0       3      14       7       3
       3       2       2       3       3       8      15       2       4       2       2
       3       3       1       1       2       0      10       5       9       8       3
       1       3       1       3       3      10      10       3       1       6       2
       3       2       1       3       1       6      15       1       4       8       3
       2       1       3       2       3       0      13       3       2      12       3
       1       2       1       1       1       4       3       8       7      12       2
       3       3       1       1       2       6      14       1       0       3       2
       1       3       3       2       3      14      14       5      10      11       2
       3       1       3       2       3       4      13       1       0      11       2
       3       1       3       1       3       8      14       2       2      10       2
       1       1       2       2       1      11      10      14      16       7       3
       3       1       2       2       2       2       9       4      11      14       2
       2       3       3       2       3       6       4       0       0       3       3
       2       2       2       1       3      15       3       9      10       7       2
       3       3       2       1       1       3      16       8       4       5       3
       1       1       1       1       1      13       7       5       9      16       2
       2       1       1       1       2       7       5      15       1       4       3
       2       2       1       1       3      15       9       5       3      13       3
       1       3       2       2       2      10       7      13       3      10       2
       1       3       2       2       3       4       4       0       9       2       2
       2       1       3       2       2       8       7       8      12       6       2
       3       2       3       1       2       2       7      11       6       3       2
       2       1       1       1       2      16      10      10       1       2       2
       3       3       1       3       1      14       8      11       6      16       3
       2       1       3       2       2       4       7       9       8      15       3
       3       1       3       2       2      10       8      12      12      16       3
       3       2       3       2       3      14       0      15      15       1       3
       3       1       3       3       3       8       6       9      11       7       2
       1       3       2       1       1       4       6       2      13      14       3
       3       2       3       1       1      15       7      15      12      15       2
       2       3       2       2       1      10       3       2       0      10       3
       3       1       2       1       1       7      12       2       7       6       2
       3       3       1       1       1       4      10      14       6       0       2
       3       3       3       2       2       4       4       0       4       0       3
       1       3       2       1       3      11       1       4      11       7       2
       1       2       1       1       2       7       1      13       9       2       2
       2       3       1       2       3       9      12       6       0      12       3
       2       1       2       1       1      15       3      16       2       5       3
       2       2       1       1       3       7       7      13       3       4       2
       2       2       3       2       3      15      12      15       4       4       3
       2       2       2       1       1       0      15       8       3       4       3
       1       1       1       2       1      15       1       5       2       2       2
       1       2       3       1       1      10       0       2      13      11       3
       2       1       3       2       2       9       1      13       0       7       3
       1       2       2       1       2       2      16      13       8       6       3
       2       3       1       1       3       3      16       0       8       9       3
       3       3       1       3       3      11       9       3      12      16       3
       3       2       2       2       1      12      16       2      10       0       2
       2       3       3       1       1      12       7      10      13       3       2
       2       1       3       1       1      16       6      14       8       6       2
       2       2       3       2       1      12      11      11       3       5       3
       1       1       3       2       1      11       6      12      14       3       2
       3       1       1       2       2       0       2       5      16      11       3
       1       2       1       1       2      16       6      13       2       8       2
       3       2       2       1       2       7       1       4      16       0       2
       2       2       3       1       2      12       5       3      15       7       3
       2       1       1       1       1      12      15      14      13       9       3
       2       3       2       2       1      15       5       7       5       8       2
       1       3       2       1       3      13       9      10       0       2       3
       3       1       2       1       2       4      16       8       8      14       3
       2       3       3       2       3      12       4       6       8      11       2
       1       1       3       2       1      13       9      12       3      15       3
       3       1       2       1       3       5      12       6      12      16       2
       3       2       1       1       1       7      10       0       2       9       2
       3       1       3       2       2       6       1      16       2       1       2
       2       2       3       1       1      11       3      14      10      16       2
       3       3       1       3       3      16       8      15      16       4       2
       2       3       3       2       2       6      12      15       5       5       2
       3       2       3       2       2      16       9      15       0      11       2
       1       3       2       1       3       1       4       3       9       3       2
       3       1       2       1       3      10      10       8      15       7       2
       2       3       1       2       1       8       3      15      11       7       2
       3       3       2       3       2      10       4       5      13      13       3
       2       3       2       2       2       5      15      16       5       9       3
       1       2       1       2       1       7      14      15       2       5       3
       3       1       2       2       1       4       9      16       3      15       3
       3       2       1       1       2      15       6       8      15      11       2
       1       1       3       2       1       5       6      15      11      15       2
       2       3       3       1       1      15      12      16       9       8       3
       2       3       2       2       3      14      13       6      12       3       3
       2       2       2       1       2      11      11      14       5       4       3
       3       1       3       2       3       2       9      11      14      11       3
       1       1       3       2       2      15      12      16       7      16       2
       2       3       3       2       3      11       9       1      15       9       2
       2       3       2       1       3       6       8       6      12       8       2
       1       1       1       3       1      14      15      13      11       4       3
       1       3       3       2       3       5       1       4       0       0       3
       2       2       1       2       2      10      10      16      13       0       2
       3       2       2       1       1      15       2      16       0       2       2
       2       2       1       1       2      12      15       2       0       0       3
       3       1       2       3       1      16      14       7       5      16       2
       1       1       1       1       2      15       6       8       4       7       3
       3       2       1       3       3       8       8      11       2      16       2
       3       2       2       1       3       4       9      14      16       4       3
       2       2       2       2       1      16       9      10       3      16       3
       2       2       3       3       3      16      12       7      15       6       2
       2       2       1       2       3       8       7      14       2      13       3
       1       1       1       1       3      12      14       9      13       2       2
       2       3       3       3       2      10      11       5      15       8       3
     252     246     251     219     191
     556     497     569     474     465
     733    1411     742     619     710